c generated by sgen
p cnf 77 164
-2 -3 -4 0
-1 -3 -4 0
-1 -2 -4 0
-1 -2 -3 0
-6 -7 -8 0
-5 -7 -8 0
-5 -6 -8 0
-5 -6 -7 0
-10 -11 -12 0
-9 -11 -12 0
-9 -10 -12 0
-9 -10 -11 0
-14 -15 -16 0
-13 -15 -16 0
-13 -14 -16 0
-13 -14 -15 0
-18 -19 -20 0
-17 -19 -20 0
-17 -18 -20 0
-17 -18 -19 0
-22 -23 -24 0
-21 -23 -24 0
-21 -22 -24 0
-21 -22 -23 0
-26 -27 -28 0
-25 -27 -28 0
-25 -26 -28 0
-25 -26 -27 0
-30 -31 -32 0
-29 -31 -32 0
-29 -30 -32 0
-29 -30 -31 0
-34 -35 -36 0
-33 -35 -36 0
-33 -34 -36 0
-33 -34 -35 0
-38 -39 -40 0
-37 -39 -40 0
-37 -38 -40 0
-37 -38 -39 0
-42 -43 -44 0
-41 -43 -44 0
-41 -42 -44 0
-41 -42 -43 0
-46 -47 -48 0
-45 -47 -48 0
-45 -46 -48 0
-45 -46 -47 0
-50 -51 -52 0
-49 -51 -52 0
-49 -50 -52 0
-49 -50 -51 0
-54 -55 -56 0
-53 -55 -56 0
-53 -54 -56 0
-53 -54 -55 0
-58 -59 -60 0
-57 -59 -60 0
-57 -58 -60 0
-57 -58 -59 0
-62 -63 -64 0
-61 -63 -64 0
-61 -62 -64 0
-61 -62 -63 0
-66 -67 -68 0
-65 -67 -68 0
-65 -66 -68 0
-65 -66 -67 0
-70 -71 -72 0
-69 -71 -72 0
-69 -70 -72 0
-69 -70 -71 0
-73 -74 -75 0
-73 -74 -76 0
-73 -74 -77 0
-73 -75 -76 0
-73 -75 -77 0
-73 -76 -77 0
-74 -75 -76 0
-74 -75 -77 0
-74 -76 -77 0
-75 -76 -77 0
19 40 63 0
65 40 63 0
65 19 63 0
65 19 40 0
9 7 57 0
28 7 57 0
28 9 57 0
28 9 7 0
17 29 12 0
23 29 12 0
23 17 12 0
23 17 29 0
10 72 33 0
67 72 33 0
67 10 33 0
67 10 72 0
73 54 5 0
68 54 5 0
68 73 5 0
68 73 54 0
42 37 31 0
58 37 31 0
58 42 31 0
58 42 37 0
35 32 6 0
2 32 6 0
2 35 6 0
2 35 32 0
15 38 36 0
75 38 36 0
75 15 36 0
75 15 38 0
13 24 8 0
47 24 8 0
47 13 8 0
47 13 24 0
25 14 66 0
4 14 66 0
4 25 66 0
4 25 14 0
76 70 20 0
21 70 20 0
21 76 20 0
21 76 70 0
34 22 49 0
41 22 49 0
41 34 49 0
41 34 22 0
45 60 53 0
18 60 53 0
18 45 53 0
18 45 60 0
69 55 64 0
43 55 64 0
43 69 64 0
43 69 55 0
77 26 3 0
44 26 3 0
44 77 3 0
44 77 26 0
50 11 16 0
56 11 16 0
56 50 16 0
56 50 11 0
46 30 74 0
62 30 74 0
62 46 74 0
62 46 30 0
59 52 1 0
61 52 1 0
61 59 1 0
61 59 52 0
39 48 27 0
39 48 51 0
39 48 71 0
39 27 51 0
39 27 71 0
39 51 71 0
48 27 51 0
48 27 71 0
48 51 71 0
27 51 71 0
